# 3d Lennard-Jones melt

units		lj
atom_style	atomic
timestep 0.001

lattice		sc 3
region		box block 0 10 0 10 0 10
create_box	1 box
create_atoms	1 box
mass		1 1.0

velocity	all create 1 87287 loop geom

pair_style	lj/cut 2.5
pair_coeff	1 1 1.0 1.0 2.5

neighbor	0.3 bin
neigh_modify	every 20 delay 0 check no

fix		1 all nve

variable kinetic_energy equal ke
variable potential_energy equal pe
variable total_energy equal etotal
fix myat1 all ave/time 1 1 1 v_kinetic_energy v_potential_energy v_total_energy file filename.dat

thermo		10
compute mytemp all temp
fix tempy all ave/time 1 1 1 c_mytemp file filename.dat
dump mydumpinitial all xyz 10 filename.xyz

run 100000
